100
100
98
98
98
98
94
94
94
93
92
91
89
89
87
86
85
84
80
80
78
76
76
75
73
73
72
71
71
71
70
69
67
65
64
64
62
62
62
62
59
56
55
55
54
53
53
53
52
52
50
49
49
49
49
49
45
44
43
43
43
43
43
39
38
38
38
37
37
36
36
34
34
33
29
29
29
28
27
27
27
25
22
22
19
17
17
17
16
15
14
14
14
13
13
13
10
8
6
6
5
3
